c User generated cnf file
p cnf 15 24
14 -6 7 0 
15 7 -5 0 
3 -2 6 0 
11 6 -2 0 
1 -14 9 0 
8 6 -3 0 
14 10 -11 0 
7 -7 8 0 
4 3 -3 0 
1 -3 4 0 
10 10 -12 0 
14 -4 13 0 
2 -7 15 0 
8 -14 5 0 
10 9 -3 0 
5 3 -6 0 
11 7 -1 0 
13 10 -8 0 
8 7 -11 0 
2 11 -14 0 
4 -6 3 0 
3 7 -1 0 
2 -6 15 0 
2 -4 1 0 
